(set-logic QF_BV)

(declare-const __ESBMC_ptr_obj_start_0 (_ BitVec 64))

(declare-const __ESBMC_ptr_obj_end_0 (_ BitVec 64))

(declare-const __ESBMC_ptr_obj_start_1 (_ BitVec 64))

(declare-const __ESBMC_ptr_obj_end_1 (_ BitVec 64))

(declare-const |smt_conv::__ESBMC_ptr_addr_range_0..start0| (_ BitVec 64))

(declare-const |smt_conv::__ESBMC_ptr_addr_range_0..end0| (_ BitVec 64))

(declare-const |smt_conv::__ESBMC_ptr_addr_range_1..start0| (_ BitVec 64))

(declare-const |smt_conv::__ESBMC_ptr_addr_range_1..end0| (_ BitVec 64))

(declare-const |smt_conv::smt_conv::collate_array_vals::3..start0| (_ BitVec 64))

(declare-const |smt_conv::smt_conv::collate_array_vals::3..end0| (_ BitVec 64))

(declare-const |smt_conv::smt_conv::collate_array_vals::4..start0| (_ BitVec 64))

(declare-const |smt_conv::smt_conv::collate_array_vals::4..end0| (_ BitVec 64))

(declare-const |smt_conv::smt_conv::collate_array_vals::7..start0| (_ BitVec 64))

(declare-const |smt_conv::smt_conv::collate_array_vals::7..end0| (_ BitVec 64))

(declare-const |c:@F@main::$tmp::return_value$___VERIFIER_nondet_uint$1?1!0&0#1| (_ BitVec 32))

(declare-const |nondet$symex::nondet65| (_ BitVec 32))

(declare-const |c:id_o1000.c@402@F@main@input?1!0&0#1| (_ BitVec 32))

(declare-const |c:id_o1000.c@318@F@id@x?1!0&0#1| (_ BitVec 32))

(declare-const |goto_symex::guard?0!0&0#1| (_ BitVec 1))

(declare-const |c:id_o1000.c@318@F@id@x?2!0&0#1| (_ BitVec 32))

(declare-const |goto_symex::guard?0!0&0#2| (_ BitVec 1))

(declare-const |c:id_o1000.c@318@F@id@x?3!0&0#1| (_ BitVec 32))

(declare-const |goto_symex::guard?0!0&0#3| (_ BitVec 1))

(declare-const |c:id_o1000.c@318@F@id@x?4!0&0#1| (_ BitVec 32))

(declare-const |goto_symex::guard?0!0&0#4| (_ BitVec 1))

(declare-const |c:id_o1000.c@318@F@id@x?5!0&0#1| (_ BitVec 32))

(declare-const |goto_symex::guard?0!0&0#5| (_ BitVec 1))

(declare-const |c:id_o1000.c@318@F@id@x?6!0&0#1| (_ BitVec 32))

(declare-const |goto_symex::guard?0!0&0#6| (_ BitVec 1))

(declare-const |c:id_o1000.c@318@F@id@x?7!0&0#1| (_ BitVec 32))

(declare-const |goto_symex::guard?0!0&0#7| (_ BitVec 1))

(declare-const |c:id_o1000.c@318@F@id@x?8!0&0#1| (_ BitVec 32))

(declare-const |goto_symex::guard?0!0&0#8| (_ BitVec 1))

(declare-const |c:id_o1000.c@318@F@id@x?9!0&0#1| (_ BitVec 32))

(declare-const |goto_symex::guard?0!0&0#9| (_ BitVec 1))

(declare-const |c:id_o1000.c@318@F@id@x?10!0&0#1| (_ BitVec 32))

(declare-const |goto_symex::guard?0!0&0#10| (_ BitVec 1))

(declare-const |c:id_o1000.c@318@F@id@x?11!0&0#1| (_ BitVec 32))

(declare-const |goto_symex::guard?0!0&0#11| (_ BitVec 1))

(declare-const |c:id_o1000.c@318@F@id@x?12!0&0#1| (_ BitVec 32))

(declare-const |goto_symex::guard?0!0&0#12| (_ BitVec 1))

(declare-const |c:id_o1000.c@318@F@id@x?13!0&0#1| (_ BitVec 32))

(declare-const |goto_symex::guard?0!0&0#13| (_ BitVec 1))

(declare-const |c:id_o1000.c@318@F@id@x?14!0&0#1| (_ BitVec 32))

(declare-const |goto_symex::guard?0!0&0#14| (_ BitVec 1))

(declare-const |c:id_o1000.c@318@F@id@x?15!0&0#1| (_ BitVec 32))

(declare-const |goto_symex::guard?0!0&0#15| (_ BitVec 1))

(declare-const |c:id_o1000.c@318@F@id@x?16!0&0#1| (_ BitVec 32))

(declare-const |goto_symex::guard?0!0&0#16| (_ BitVec 1))

(declare-const |c:id_o1000.c@318@F@id@x?17!0&0#1| (_ BitVec 32))

(declare-const |goto_symex::guard?0!0&0#17| (_ BitVec 1))

(declare-const |c:id_o1000.c@318@F@id@x?18!0&0#1| (_ BitVec 32))

(declare-const |goto_symex::guard?0!0&0#18| (_ BitVec 1))

(declare-const |c:id_o1000.c@318@F@id@x?19!0&0#1| (_ BitVec 32))

(declare-const |goto_symex::guard?0!0&0#19| (_ BitVec 1))

(declare-const |c:id_o1000.c@318@F@id@x?20!0&0#1| (_ BitVec 32))

(declare-const |goto_symex::guard?0!0&0#20| (_ BitVec 1))

(declare-const |c:id_o1000.c@318@F@id@x?21!0&0#1| (_ BitVec 32))

(declare-const |goto_symex::guard?0!0&0#21| (_ BitVec 1))

(declare-const |c:id_o1000.c@318@F@id@x?22!0&0#1| (_ BitVec 32))

(declare-const |goto_symex::guard?0!0&0#22| (_ BitVec 1))

(declare-const |c:id_o1000.c@318@F@id@x?23!0&0#1| (_ BitVec 32))

(declare-const |goto_symex::guard?0!0&0#23| (_ BitVec 1))

(declare-const |c:id_o1000.c@318@F@id@x?24!0&0#1| (_ BitVec 32))

(declare-const |goto_symex::guard?0!0&0#24| (_ BitVec 1))

(declare-const |c:id_o1000.c@318@F@id@x?25!0&0#1| (_ BitVec 32))

(declare-const |goto_symex::guard?0!0&0#25| (_ BitVec 1))

(declare-const |c:id_o1000.c@318@F@id@x?26!0&0#1| (_ BitVec 32))

(declare-const |goto_symex::guard?0!0&0#26| (_ BitVec 1))

(declare-const |c:id_o1000.c@318@F@id@x?27!0&0#1| (_ BitVec 32))

(declare-const |goto_symex::guard?0!0&0#27| (_ BitVec 1))

(declare-const |c:id_o1000.c@318@F@id@x?28!0&0#1| (_ BitVec 32))

(declare-const |goto_symex::guard?0!0&0#28| (_ BitVec 1))

(declare-const |c:id_o1000.c@318@F@id@x?29!0&0#1| (_ BitVec 32))

(declare-const |goto_symex::guard?0!0&0#29| (_ BitVec 1))

(declare-const |c:id_o1000.c@318@F@id@x?30!0&0#1| (_ BitVec 32))

(declare-const |goto_symex::guard?0!0&0#30| (_ BitVec 1))

(declare-const |c:id_o1000.c@318@F@id@x?31!0&0#1| (_ BitVec 32))

(declare-const |goto_symex::guard?0!0&0#31| (_ BitVec 1))

(declare-const |c:id_o1000.c@318@F@id@x?32!0&0#1| (_ BitVec 32))

(declare-const |goto_symex::guard?0!0&0#32| (_ BitVec 1))

(declare-const |c:id_o1000.c@318@F@id@x?33!0&0#1| (_ BitVec 32))

(declare-const |goto_symex::guard?0!0&0#33| (_ BitVec 1))

(declare-const |execution_statet::guard_exec?0!0| (_ BitVec 1))

(declare-const |c:@F@id::$tmp::return_value$_id$1?32!0&0#2| (_ BitVec 32))

(declare-const |c:@F@id::$tmp::return_value$_id$1?33!0&0#0| (_ BitVec 32))

(declare-const |c:@F@id::$tmp::return_value$_id$1?32!0&0#3| (_ BitVec 32))

(declare-const |c:@F@id::$tmp::return_value$_id$1?31!0&0#2| (_ BitVec 32))

(declare-const |c:@F@id::$tmp::return_value$_id$1?31!0&0#3| (_ BitVec 32))

(declare-const |c:@F@id::$tmp::return_value$_id$1?30!0&0#2| (_ BitVec 32))

(declare-const |c:@F@id::$tmp::return_value$_id$1?30!0&0#3| (_ BitVec 32))

(declare-const |c:@F@id::$tmp::return_value$_id$1?29!0&0#2| (_ BitVec 32))

(declare-const |c:@F@id::$tmp::return_value$_id$1?29!0&0#3| (_ BitVec 32))

(declare-const |c:@F@id::$tmp::return_value$_id$1?28!0&0#2| (_ BitVec 32))

(declare-const |c:@F@id::$tmp::return_value$_id$1?28!0&0#3| (_ BitVec 32))

(declare-const |c:@F@id::$tmp::return_value$_id$1?27!0&0#2| (_ BitVec 32))

(declare-const |c:@F@id::$tmp::return_value$_id$1?27!0&0#3| (_ BitVec 32))

(declare-const |c:@F@id::$tmp::return_value$_id$1?26!0&0#2| (_ BitVec 32))

(declare-const |c:@F@id::$tmp::return_value$_id$1?26!0&0#3| (_ BitVec 32))

(declare-const |c:@F@id::$tmp::return_value$_id$1?25!0&0#2| (_ BitVec 32))

(declare-const |c:@F@id::$tmp::return_value$_id$1?25!0&0#3| (_ BitVec 32))

(declare-const |c:@F@id::$tmp::return_value$_id$1?24!0&0#2| (_ BitVec 32))

(declare-const |c:@F@id::$tmp::return_value$_id$1?24!0&0#3| (_ BitVec 32))

(declare-const |c:@F@id::$tmp::return_value$_id$1?23!0&0#2| (_ BitVec 32))

(declare-const |c:@F@id::$tmp::return_value$_id$1?23!0&0#3| (_ BitVec 32))

(declare-const |c:@F@id::$tmp::return_value$_id$1?22!0&0#2| (_ BitVec 32))

(declare-const |c:@F@id::$tmp::return_value$_id$1?22!0&0#3| (_ BitVec 32))

(declare-const |c:@F@id::$tmp::return_value$_id$1?21!0&0#2| (_ BitVec 32))

(declare-const |c:@F@id::$tmp::return_value$_id$1?21!0&0#3| (_ BitVec 32))

(declare-const |c:@F@id::$tmp::return_value$_id$1?20!0&0#2| (_ BitVec 32))

(declare-const |c:@F@id::$tmp::return_value$_id$1?20!0&0#3| (_ BitVec 32))

(declare-const |c:@F@id::$tmp::return_value$_id$1?19!0&0#2| (_ BitVec 32))

(declare-const |c:@F@id::$tmp::return_value$_id$1?19!0&0#3| (_ BitVec 32))

(declare-const |c:@F@id::$tmp::return_value$_id$1?18!0&0#2| (_ BitVec 32))

(declare-const |c:@F@id::$tmp::return_value$_id$1?18!0&0#3| (_ BitVec 32))

(declare-const |c:@F@id::$tmp::return_value$_id$1?17!0&0#2| (_ BitVec 32))

(declare-const |c:@F@id::$tmp::return_value$_id$1?17!0&0#3| (_ BitVec 32))

(declare-const |c:@F@id::$tmp::return_value$_id$1?16!0&0#2| (_ BitVec 32))

(declare-const |c:@F@id::$tmp::return_value$_id$1?16!0&0#3| (_ BitVec 32))

(declare-const |c:@F@id::$tmp::return_value$_id$1?15!0&0#2| (_ BitVec 32))

(declare-const |c:@F@id::$tmp::return_value$_id$1?15!0&0#3| (_ BitVec 32))

(declare-const |c:@F@id::$tmp::return_value$_id$1?14!0&0#2| (_ BitVec 32))

(declare-const |c:@F@id::$tmp::return_value$_id$1?14!0&0#3| (_ BitVec 32))

(declare-const |c:@F@id::$tmp::return_value$_id$1?13!0&0#2| (_ BitVec 32))

(declare-const |c:@F@id::$tmp::return_value$_id$1?13!0&0#3| (_ BitVec 32))

(declare-const |c:@F@id::$tmp::return_value$_id$1?12!0&0#2| (_ BitVec 32))

(declare-const |c:@F@id::$tmp::return_value$_id$1?12!0&0#3| (_ BitVec 32))

(declare-const |c:@F@id::$tmp::return_value$_id$1?11!0&0#2| (_ BitVec 32))

(declare-const |c:@F@id::$tmp::return_value$_id$1?11!0&0#3| (_ BitVec 32))

(declare-const |c:@F@id::$tmp::return_value$_id$1?10!0&0#2| (_ BitVec 32))

(declare-const |c:@F@id::$tmp::return_value$_id$1?10!0&0#3| (_ BitVec 32))

(declare-const |c:@F@id::$tmp::return_value$_id$1?9!0&0#2| (_ BitVec 32))

(declare-const |c:@F@id::$tmp::return_value$_id$1?9!0&0#3| (_ BitVec 32))

(declare-const |c:@F@id::$tmp::return_value$_id$1?8!0&0#2| (_ BitVec 32))

(declare-const |c:@F@id::$tmp::return_value$_id$1?8!0&0#3| (_ BitVec 32))

(declare-const |c:@F@id::$tmp::return_value$_id$1?7!0&0#2| (_ BitVec 32))

(declare-const |c:@F@id::$tmp::return_value$_id$1?7!0&0#3| (_ BitVec 32))

(declare-const |c:@F@id::$tmp::return_value$_id$1?6!0&0#2| (_ BitVec 32))

(declare-const |c:@F@id::$tmp::return_value$_id$1?6!0&0#3| (_ BitVec 32))

(declare-const |c:@F@id::$tmp::return_value$_id$1?5!0&0#2| (_ BitVec 32))

(declare-const |c:@F@id::$tmp::return_value$_id$1?5!0&0#3| (_ BitVec 32))

(declare-const |c:@F@id::$tmp::return_value$_id$1?4!0&0#2| (_ BitVec 32))

(declare-const |c:@F@id::$tmp::return_value$_id$1?4!0&0#3| (_ BitVec 32))

(declare-const |c:@F@id::$tmp::return_value$_id$1?3!0&0#2| (_ BitVec 32))

(declare-const |c:@F@id::$tmp::return_value$_id$1?3!0&0#3| (_ BitVec 32))

(declare-const |c:@F@id::$tmp::return_value$_id$1?2!0&0#2| (_ BitVec 32))

(declare-const |c:@F@id::$tmp::return_value$_id$1?2!0&0#3| (_ BitVec 32))

(declare-const |c:@F@id::$tmp::return_value$_id$1?1!0&0#2| (_ BitVec 32))

(declare-const |c:@F@id::$tmp::return_value$_id$1?1!0&0#3| (_ BitVec 32))

(declare-const |c:@F@main::$tmp::return_value$_id$2?1!0&0#2| (_ BitVec 32))

(declare-const |c:@F@main::$tmp::return_value$_id$2?1!0&0#3| (_ BitVec 32))

(declare-const |c:id_o1000.c@451@F@main@result?1!0&0#1| (_ BitVec 32))

(declare-const |goto_symex::guard?0!0&0#34| (_ BitVec 1))

(assert 

 (= __ESBMC_ptr_obj_start_0 #b0000000000000000000000000000000000000000000000000000000000000000))

(assert 

 (= #b0000000000000000000000000000000000000000000000000000000000000000 __ESBMC_ptr_obj_end_0))

(assert 

 (= __ESBMC_ptr_obj_start_1 #b0000000000000000000000000000000000000000000000000000000000000001))

(assert 

 (= #b1111111111111111111111111111111111111111111111111111111111111111 __ESBMC_ptr_obj_end_1))

(assert 

 (= __ESBMC_ptr_obj_end_0 |smt_conv::__ESBMC_ptr_addr_range_0..end0|))

(assert 

 (= __ESBMC_ptr_obj_start_0 |smt_conv::__ESBMC_ptr_addr_range_0..start0|))

(assert 

 (= __ESBMC_ptr_obj_end_1 |smt_conv::__ESBMC_ptr_addr_range_1..end0|))

(assert 

 (= __ESBMC_ptr_obj_start_1 |smt_conv::__ESBMC_ptr_addr_range_1..start0|))

(assert 

 (= |smt_conv::smt_conv::collate_array_vals::3..end0| |smt_conv::smt_conv::collate_array_vals::4..end0|))

(assert 

 (= |smt_conv::smt_conv::collate_array_vals::3..start0| |smt_conv::smt_conv::collate_array_vals::4..start0|))

(assert 

 (= __ESBMC_ptr_obj_end_0 |smt_conv::smt_conv::collate_array_vals::7..end0|))

(assert 

 (= __ESBMC_ptr_obj_start_0 |smt_conv::smt_conv::collate_array_vals::7..start0|))

(assert 

 (= |c:@F@main::$tmp::return_value$___VERIFIER_nondet_uint$1?1!0&0#1| |nondet$symex::nondet65|))

(assert 

 (= |c:@F@main::$tmp::return_value$___VERIFIER_nondet_uint$1?1!0&0#1| |c:id_o1000.c@402@F@main@input?1!0&0#1|))

(assert 

 (= |c:id_o1000.c@402@F@main@input?1!0&0#1| |c:id_o1000.c@318@F@id@x?1!0&0#1|))

(assert 

 (= |goto_symex::guard?0!0&0#1| 

  (ite 

   (= #b00000000000000000000000000000000 |c:id_o1000.c@318@F@id@x?1!0&0#1|) #b1 #b0)))

(assert 

 (= |c:id_o1000.c@318@F@id@x?2!0&0#1| 

  (bvadd #b11111111111111111111111111111111 |c:id_o1000.c@318@F@id@x?1!0&0#1|)))

(assert 

 (= |goto_symex::guard?0!0&0#2| 

  (ite 

   (= #b00000000000000000000000000000000 |c:id_o1000.c@318@F@id@x?2!0&0#1|) #b1 #b0)))

(assert 

 (= |c:id_o1000.c@318@F@id@x?3!0&0#1| 

  (bvadd #b11111111111111111111111111111111 |c:id_o1000.c@318@F@id@x?2!0&0#1|)))

(assert 

 (= |goto_symex::guard?0!0&0#3| 

  (ite 

   (= #b00000000000000000000000000000000 |c:id_o1000.c@318@F@id@x?3!0&0#1|) #b1 #b0)))

(assert 

 (= |c:id_o1000.c@318@F@id@x?4!0&0#1| 

  (bvadd #b11111111111111111111111111111111 |c:id_o1000.c@318@F@id@x?3!0&0#1|)))

(assert 

 (= |goto_symex::guard?0!0&0#4| 

  (ite 

   (= #b00000000000000000000000000000000 |c:id_o1000.c@318@F@id@x?4!0&0#1|) #b1 #b0)))

(assert 

 (= |c:id_o1000.c@318@F@id@x?5!0&0#1| 

  (bvadd #b11111111111111111111111111111111 |c:id_o1000.c@318@F@id@x?4!0&0#1|)))

(assert 

 (= |goto_symex::guard?0!0&0#5| 

  (ite 

   (= #b00000000000000000000000000000000 |c:id_o1000.c@318@F@id@x?5!0&0#1|) #b1 #b0)))

(assert 

 (= |c:id_o1000.c@318@F@id@x?6!0&0#1| 

  (bvadd #b11111111111111111111111111111111 |c:id_o1000.c@318@F@id@x?5!0&0#1|)))

(assert 

 (= |goto_symex::guard?0!0&0#6| 

  (ite 

   (= #b00000000000000000000000000000000 |c:id_o1000.c@318@F@id@x?6!0&0#1|) #b1 #b0)))

(assert 

 (= |c:id_o1000.c@318@F@id@x?7!0&0#1| 

  (bvadd #b11111111111111111111111111111111 |c:id_o1000.c@318@F@id@x?6!0&0#1|)))

(assert 

 (= |goto_symex::guard?0!0&0#7| 

  (ite 

   (= #b00000000000000000000000000000000 |c:id_o1000.c@318@F@id@x?7!0&0#1|) #b1 #b0)))

(assert 

 (= |c:id_o1000.c@318@F@id@x?8!0&0#1| 

  (bvadd #b11111111111111111111111111111111 |c:id_o1000.c@318@F@id@x?7!0&0#1|)))

(assert 

 (= |goto_symex::guard?0!0&0#8| 

  (ite 

   (= #b00000000000000000000000000000000 |c:id_o1000.c@318@F@id@x?8!0&0#1|) #b1 #b0)))

(assert 

 (= |c:id_o1000.c@318@F@id@x?9!0&0#1| 

  (bvadd #b11111111111111111111111111111111 |c:id_o1000.c@318@F@id@x?8!0&0#1|)))

(assert 

 (= |goto_symex::guard?0!0&0#9| 

  (ite 

   (= #b00000000000000000000000000000000 |c:id_o1000.c@318@F@id@x?9!0&0#1|) #b1 #b0)))

(assert 

 (= |c:id_o1000.c@318@F@id@x?10!0&0#1| 

  (bvadd #b11111111111111111111111111111111 |c:id_o1000.c@318@F@id@x?9!0&0#1|)))

(assert 

 (= |goto_symex::guard?0!0&0#10| 

  (ite 

   (= #b00000000000000000000000000000000 |c:id_o1000.c@318@F@id@x?10!0&0#1|) #b1 #b0)))

(assert 

 (= |c:id_o1000.c@318@F@id@x?11!0&0#1| 

  (bvadd #b11111111111111111111111111111111 |c:id_o1000.c@318@F@id@x?10!0&0#1|)))

(assert 

 (= |goto_symex::guard?0!0&0#11| 

  (ite 

   (= #b00000000000000000000000000000000 |c:id_o1000.c@318@F@id@x?11!0&0#1|) #b1 #b0)))

(assert 

 (= |c:id_o1000.c@318@F@id@x?12!0&0#1| 

  (bvadd #b11111111111111111111111111111111 |c:id_o1000.c@318@F@id@x?11!0&0#1|)))

(assert 

 (= |goto_symex::guard?0!0&0#12| 

  (ite 

   (= #b00000000000000000000000000000000 |c:id_o1000.c@318@F@id@x?12!0&0#1|) #b1 #b0)))

(assert 

 (= |c:id_o1000.c@318@F@id@x?13!0&0#1| 

  (bvadd #b11111111111111111111111111111111 |c:id_o1000.c@318@F@id@x?12!0&0#1|)))

(assert 

 (= |goto_symex::guard?0!0&0#13| 

  (ite 

   (= #b00000000000000000000000000000000 |c:id_o1000.c@318@F@id@x?13!0&0#1|) #b1 #b0)))

(assert 

 (= |c:id_o1000.c@318@F@id@x?14!0&0#1| 

  (bvadd #b11111111111111111111111111111111 |c:id_o1000.c@318@F@id@x?13!0&0#1|)))

(assert 

 (= |goto_symex::guard?0!0&0#14| 

  (ite 

   (= #b00000000000000000000000000000000 |c:id_o1000.c@318@F@id@x?14!0&0#1|) #b1 #b0)))

(assert 

 (= |c:id_o1000.c@318@F@id@x?15!0&0#1| 

  (bvadd #b11111111111111111111111111111111 |c:id_o1000.c@318@F@id@x?14!0&0#1|)))

(assert 

 (= |goto_symex::guard?0!0&0#15| 

  (ite 

   (= #b00000000000000000000000000000000 |c:id_o1000.c@318@F@id@x?15!0&0#1|) #b1 #b0)))

(assert 

 (= |c:id_o1000.c@318@F@id@x?16!0&0#1| 

  (bvadd #b11111111111111111111111111111111 |c:id_o1000.c@318@F@id@x?15!0&0#1|)))

(assert 

 (= |goto_symex::guard?0!0&0#16| 

  (ite 

   (= #b00000000000000000000000000000000 |c:id_o1000.c@318@F@id@x?16!0&0#1|) #b1 #b0)))

(assert 

 (= |c:id_o1000.c@318@F@id@x?17!0&0#1| 

  (bvadd #b11111111111111111111111111111111 |c:id_o1000.c@318@F@id@x?16!0&0#1|)))

(assert 

 (= |goto_symex::guard?0!0&0#17| 

  (ite 

   (= #b00000000000000000000000000000000 |c:id_o1000.c@318@F@id@x?17!0&0#1|) #b1 #b0)))

(assert 

 (= |c:id_o1000.c@318@F@id@x?18!0&0#1| 

  (bvadd #b11111111111111111111111111111111 |c:id_o1000.c@318@F@id@x?17!0&0#1|)))

(assert 

 (= |goto_symex::guard?0!0&0#18| 

  (ite 

   (= #b00000000000000000000000000000000 |c:id_o1000.c@318@F@id@x?18!0&0#1|) #b1 #b0)))

(assert 

 (= |c:id_o1000.c@318@F@id@x?19!0&0#1| 

  (bvadd #b11111111111111111111111111111111 |c:id_o1000.c@318@F@id@x?18!0&0#1|)))

(assert 

 (= |goto_symex::guard?0!0&0#19| 

  (ite 

   (= #b00000000000000000000000000000000 |c:id_o1000.c@318@F@id@x?19!0&0#1|) #b1 #b0)))

(assert 

 (= |c:id_o1000.c@318@F@id@x?20!0&0#1| 

  (bvadd #b11111111111111111111111111111111 |c:id_o1000.c@318@F@id@x?19!0&0#1|)))

(assert 

 (= |goto_symex::guard?0!0&0#20| 

  (ite 

   (= #b00000000000000000000000000000000 |c:id_o1000.c@318@F@id@x?20!0&0#1|) #b1 #b0)))

(assert 

 (= |c:id_o1000.c@318@F@id@x?21!0&0#1| 

  (bvadd #b11111111111111111111111111111111 |c:id_o1000.c@318@F@id@x?20!0&0#1|)))

(assert 

 (= |goto_symex::guard?0!0&0#21| 

  (ite 

   (= #b00000000000000000000000000000000 |c:id_o1000.c@318@F@id@x?21!0&0#1|) #b1 #b0)))

(assert 

 (= |c:id_o1000.c@318@F@id@x?22!0&0#1| 

  (bvadd #b11111111111111111111111111111111 |c:id_o1000.c@318@F@id@x?21!0&0#1|)))

(assert 

 (= |goto_symex::guard?0!0&0#22| 

  (ite 

   (= #b00000000000000000000000000000000 |c:id_o1000.c@318@F@id@x?22!0&0#1|) #b1 #b0)))

(assert 

 (= |c:id_o1000.c@318@F@id@x?23!0&0#1| 

  (bvadd #b11111111111111111111111111111111 |c:id_o1000.c@318@F@id@x?22!0&0#1|)))

(assert 

 (= |goto_symex::guard?0!0&0#23| 

  (ite 

   (= #b00000000000000000000000000000000 |c:id_o1000.c@318@F@id@x?23!0&0#1|) #b1 #b0)))

(assert 

 (= |c:id_o1000.c@318@F@id@x?24!0&0#1| 

  (bvadd #b11111111111111111111111111111111 |c:id_o1000.c@318@F@id@x?23!0&0#1|)))

(assert 

 (= |goto_symex::guard?0!0&0#24| 

  (ite 

   (= #b00000000000000000000000000000000 |c:id_o1000.c@318@F@id@x?24!0&0#1|) #b1 #b0)))

(assert 

 (= |c:id_o1000.c@318@F@id@x?25!0&0#1| 

  (bvadd #b11111111111111111111111111111111 |c:id_o1000.c@318@F@id@x?24!0&0#1|)))

(assert 

 (= |goto_symex::guard?0!0&0#25| 

  (ite 

   (= #b00000000000000000000000000000000 |c:id_o1000.c@318@F@id@x?25!0&0#1|) #b1 #b0)))

(assert 

 (= |c:id_o1000.c@318@F@id@x?26!0&0#1| 

  (bvadd #b11111111111111111111111111111111 |c:id_o1000.c@318@F@id@x?25!0&0#1|)))

(assert 

 (= |goto_symex::guard?0!0&0#26| 

  (ite 

   (= #b00000000000000000000000000000000 |c:id_o1000.c@318@F@id@x?26!0&0#1|) #b1 #b0)))

(assert 

 (= |c:id_o1000.c@318@F@id@x?27!0&0#1| 

  (bvadd #b11111111111111111111111111111111 |c:id_o1000.c@318@F@id@x?26!0&0#1|)))

(assert 

 (= |goto_symex::guard?0!0&0#27| 

  (ite 

   (= #b00000000000000000000000000000000 |c:id_o1000.c@318@F@id@x?27!0&0#1|) #b1 #b0)))

(assert 

 (= |c:id_o1000.c@318@F@id@x?28!0&0#1| 

  (bvadd #b11111111111111111111111111111111 |c:id_o1000.c@318@F@id@x?27!0&0#1|)))

(assert 

 (= |goto_symex::guard?0!0&0#28| 

  (ite 

   (= #b00000000000000000000000000000000 |c:id_o1000.c@318@F@id@x?28!0&0#1|) #b1 #b0)))

(assert 

 (= |c:id_o1000.c@318@F@id@x?29!0&0#1| 

  (bvadd #b11111111111111111111111111111111 |c:id_o1000.c@318@F@id@x?28!0&0#1|)))

(assert 

 (= |goto_symex::guard?0!0&0#29| 

  (ite 

   (= #b00000000000000000000000000000000 |c:id_o1000.c@318@F@id@x?29!0&0#1|) #b1 #b0)))

(assert 

 (= |c:id_o1000.c@318@F@id@x?30!0&0#1| 

  (bvadd #b11111111111111111111111111111111 |c:id_o1000.c@318@F@id@x?29!0&0#1|)))

(assert 

 (= |goto_symex::guard?0!0&0#30| 

  (ite 

   (= #b00000000000000000000000000000000 |c:id_o1000.c@318@F@id@x?30!0&0#1|) #b1 #b0)))

(assert 

 (= |c:id_o1000.c@318@F@id@x?31!0&0#1| 

  (bvadd #b11111111111111111111111111111111 |c:id_o1000.c@318@F@id@x?30!0&0#1|)))

(assert 

 (= |goto_symex::guard?0!0&0#31| 

  (ite 

   (= #b00000000000000000000000000000000 |c:id_o1000.c@318@F@id@x?31!0&0#1|) #b1 #b0)))

(assert 

 (= |c:id_o1000.c@318@F@id@x?32!0&0#1| 

  (bvadd #b11111111111111111111111111111111 |c:id_o1000.c@318@F@id@x?31!0&0#1|)))

(assert 

 (= |goto_symex::guard?0!0&0#32| 

  (ite 

   (= #b00000000000000000000000000000000 |c:id_o1000.c@318@F@id@x?32!0&0#1|) #b1 #b0)))

(assert 

 (= |c:id_o1000.c@318@F@id@x?33!0&0#1| 

  (bvadd #b11111111111111111111111111111111 |c:id_o1000.c@318@F@id@x?32!0&0#1|)))

(assert 

 (= |goto_symex::guard?0!0&0#33| 

  (ite 

   (= #b00000000000000000000000000000000 |c:id_o1000.c@318@F@id@x?33!0&0#1|) #b1 #b0)))

(assert 

 (= |c:@F@id::$tmp::return_value$_id$1?32!0&0#2| 

  (bvadd #b00000000000000000000000000000001 |c:@F@id::$tmp::return_value$_id$1?33!0&0#0|)))

(assert 

 (= |c:@F@id::$tmp::return_value$_id$1?32!0&0#3| 

  (ite 

   (= #b1 |goto_symex::guard?0!0&0#33|) #b00000000000000000000000000000000 |c:@F@id::$tmp::return_value$_id$1?32!0&0#2|)))

(assert 

 (= |c:@F@id::$tmp::return_value$_id$1?31!0&0#2| 

  (bvadd #b00000000000000000000000000000001 |c:@F@id::$tmp::return_value$_id$1?32!0&0#3|)))

(assert 

 (= |c:@F@id::$tmp::return_value$_id$1?31!0&0#3| 

  (ite 

   (= #b1 |goto_symex::guard?0!0&0#32|) #b00000000000000000000000000000000 |c:@F@id::$tmp::return_value$_id$1?31!0&0#2|)))

(assert 

 (= |c:@F@id::$tmp::return_value$_id$1?30!0&0#2| 

  (bvadd #b00000000000000000000000000000001 |c:@F@id::$tmp::return_value$_id$1?31!0&0#3|)))

(assert 

 (= |c:@F@id::$tmp::return_value$_id$1?30!0&0#3| 

  (ite 

   (= #b1 |goto_symex::guard?0!0&0#31|) #b00000000000000000000000000000000 |c:@F@id::$tmp::return_value$_id$1?30!0&0#2|)))

(assert 

 (= |c:@F@id::$tmp::return_value$_id$1?29!0&0#2| 

  (bvadd #b00000000000000000000000000000001 |c:@F@id::$tmp::return_value$_id$1?30!0&0#3|)))

(assert 

 (= |c:@F@id::$tmp::return_value$_id$1?29!0&0#3| 

  (ite 

   (= #b1 |goto_symex::guard?0!0&0#30|) #b00000000000000000000000000000000 |c:@F@id::$tmp::return_value$_id$1?29!0&0#2|)))

(assert 

 (= |c:@F@id::$tmp::return_value$_id$1?28!0&0#2| 

  (bvadd #b00000000000000000000000000000001 |c:@F@id::$tmp::return_value$_id$1?29!0&0#3|)))

(assert 

 (= |c:@F@id::$tmp::return_value$_id$1?28!0&0#3| 

  (ite 

   (= #b1 |goto_symex::guard?0!0&0#29|) #b00000000000000000000000000000000 |c:@F@id::$tmp::return_value$_id$1?28!0&0#2|)))

(assert 

 (= |c:@F@id::$tmp::return_value$_id$1?27!0&0#2| 

  (bvadd #b00000000000000000000000000000001 |c:@F@id::$tmp::return_value$_id$1?28!0&0#3|)))

(assert 

 (= |c:@F@id::$tmp::return_value$_id$1?27!0&0#3| 

  (ite 

   (= #b1 |goto_symex::guard?0!0&0#28|) #b00000000000000000000000000000000 |c:@F@id::$tmp::return_value$_id$1?27!0&0#2|)))

(assert 

 (= |c:@F@id::$tmp::return_value$_id$1?26!0&0#2| 

  (bvadd #b00000000000000000000000000000001 |c:@F@id::$tmp::return_value$_id$1?27!0&0#3|)))

(assert 

 (= |c:@F@id::$tmp::return_value$_id$1?26!0&0#3| 

  (ite 

   (= #b1 |goto_symex::guard?0!0&0#27|) #b00000000000000000000000000000000 |c:@F@id::$tmp::return_value$_id$1?26!0&0#2|)))

(assert 

 (= |c:@F@id::$tmp::return_value$_id$1?25!0&0#2| 

  (bvadd #b00000000000000000000000000000001 |c:@F@id::$tmp::return_value$_id$1?26!0&0#3|)))

(assert 

 (= |c:@F@id::$tmp::return_value$_id$1?25!0&0#3| 

  (ite 

   (= #b1 |goto_symex::guard?0!0&0#26|) #b00000000000000000000000000000000 |c:@F@id::$tmp::return_value$_id$1?25!0&0#2|)))

(assert 

 (= |c:@F@id::$tmp::return_value$_id$1?24!0&0#2| 

  (bvadd #b00000000000000000000000000000001 |c:@F@id::$tmp::return_value$_id$1?25!0&0#3|)))

(assert 

 (= |c:@F@id::$tmp::return_value$_id$1?24!0&0#3| 

  (ite 

   (= #b1 |goto_symex::guard?0!0&0#25|) #b00000000000000000000000000000000 |c:@F@id::$tmp::return_value$_id$1?24!0&0#2|)))

(assert 

 (= |c:@F@id::$tmp::return_value$_id$1?23!0&0#2| 

  (bvadd #b00000000000000000000000000000001 |c:@F@id::$tmp::return_value$_id$1?24!0&0#3|)))

(assert 

 (= |c:@F@id::$tmp::return_value$_id$1?23!0&0#3| 

  (ite 

   (= #b1 |goto_symex::guard?0!0&0#24|) #b00000000000000000000000000000000 |c:@F@id::$tmp::return_value$_id$1?23!0&0#2|)))

(assert 

 (= |c:@F@id::$tmp::return_value$_id$1?22!0&0#2| 

  (bvadd #b00000000000000000000000000000001 |c:@F@id::$tmp::return_value$_id$1?23!0&0#3|)))

(assert 

 (= |c:@F@id::$tmp::return_value$_id$1?22!0&0#3| 

  (ite 

   (= #b1 |goto_symex::guard?0!0&0#23|) #b00000000000000000000000000000000 |c:@F@id::$tmp::return_value$_id$1?22!0&0#2|)))

(assert 

 (= |c:@F@id::$tmp::return_value$_id$1?21!0&0#2| 

  (bvadd #b00000000000000000000000000000001 |c:@F@id::$tmp::return_value$_id$1?22!0&0#3|)))

(assert 

 (= |c:@F@id::$tmp::return_value$_id$1?21!0&0#3| 

  (ite 

   (= #b1 |goto_symex::guard?0!0&0#22|) #b00000000000000000000000000000000 |c:@F@id::$tmp::return_value$_id$1?21!0&0#2|)))

(assert 

 (= |c:@F@id::$tmp::return_value$_id$1?20!0&0#2| 

  (bvadd #b00000000000000000000000000000001 |c:@F@id::$tmp::return_value$_id$1?21!0&0#3|)))

(assert 

 (= |c:@F@id::$tmp::return_value$_id$1?20!0&0#3| 

  (ite 

   (= #b1 |goto_symex::guard?0!0&0#21|) #b00000000000000000000000000000000 |c:@F@id::$tmp::return_value$_id$1?20!0&0#2|)))

(assert 

 (= |c:@F@id::$tmp::return_value$_id$1?19!0&0#2| 

  (bvadd #b00000000000000000000000000000001 |c:@F@id::$tmp::return_value$_id$1?20!0&0#3|)))

(assert 

 (= |c:@F@id::$tmp::return_value$_id$1?19!0&0#3| 

  (ite 

   (= #b1 |goto_symex::guard?0!0&0#20|) #b00000000000000000000000000000000 |c:@F@id::$tmp::return_value$_id$1?19!0&0#2|)))

(assert 

 (= |c:@F@id::$tmp::return_value$_id$1?18!0&0#2| 

  (bvadd #b00000000000000000000000000000001 |c:@F@id::$tmp::return_value$_id$1?19!0&0#3|)))

(assert 

 (= |c:@F@id::$tmp::return_value$_id$1?18!0&0#3| 

  (ite 

   (= #b1 |goto_symex::guard?0!0&0#19|) #b00000000000000000000000000000000 |c:@F@id::$tmp::return_value$_id$1?18!0&0#2|)))

(assert 

 (= |c:@F@id::$tmp::return_value$_id$1?17!0&0#2| 

  (bvadd #b00000000000000000000000000000001 |c:@F@id::$tmp::return_value$_id$1?18!0&0#3|)))

(assert 

 (= |c:@F@id::$tmp::return_value$_id$1?17!0&0#3| 

  (ite 

   (= #b1 |goto_symex::guard?0!0&0#18|) #b00000000000000000000000000000000 |c:@F@id::$tmp::return_value$_id$1?17!0&0#2|)))

(assert 

 (= |c:@F@id::$tmp::return_value$_id$1?16!0&0#2| 

  (bvadd #b00000000000000000000000000000001 |c:@F@id::$tmp::return_value$_id$1?17!0&0#3|)))

(assert 

 (= |c:@F@id::$tmp::return_value$_id$1?16!0&0#3| 

  (ite 

   (= #b1 |goto_symex::guard?0!0&0#17|) #b00000000000000000000000000000000 |c:@F@id::$tmp::return_value$_id$1?16!0&0#2|)))

(assert 

 (= |c:@F@id::$tmp::return_value$_id$1?15!0&0#2| 

  (bvadd #b00000000000000000000000000000001 |c:@F@id::$tmp::return_value$_id$1?16!0&0#3|)))

(assert 

 (= |c:@F@id::$tmp::return_value$_id$1?15!0&0#3| 

  (ite 

   (= #b1 |goto_symex::guard?0!0&0#16|) #b00000000000000000000000000000000 |c:@F@id::$tmp::return_value$_id$1?15!0&0#2|)))

(assert 

 (= |c:@F@id::$tmp::return_value$_id$1?14!0&0#2| 

  (bvadd #b00000000000000000000000000000001 |c:@F@id::$tmp::return_value$_id$1?15!0&0#3|)))

(assert 

 (= |c:@F@id::$tmp::return_value$_id$1?14!0&0#3| 

  (ite 

   (= #b1 |goto_symex::guard?0!0&0#15|) #b00000000000000000000000000000000 |c:@F@id::$tmp::return_value$_id$1?14!0&0#2|)))

(assert 

 (= |c:@F@id::$tmp::return_value$_id$1?13!0&0#2| 

  (bvadd #b00000000000000000000000000000001 |c:@F@id::$tmp::return_value$_id$1?14!0&0#3|)))

(assert 

 (= |c:@F@id::$tmp::return_value$_id$1?13!0&0#3| 

  (ite 

   (= #b1 |goto_symex::guard?0!0&0#14|) #b00000000000000000000000000000000 |c:@F@id::$tmp::return_value$_id$1?13!0&0#2|)))

(assert 

 (= |c:@F@id::$tmp::return_value$_id$1?12!0&0#2| 

  (bvadd #b00000000000000000000000000000001 |c:@F@id::$tmp::return_value$_id$1?13!0&0#3|)))

(assert 

 (= |c:@F@id::$tmp::return_value$_id$1?12!0&0#3| 

  (ite 

   (= #b1 |goto_symex::guard?0!0&0#13|) #b00000000000000000000000000000000 |c:@F@id::$tmp::return_value$_id$1?12!0&0#2|)))

(assert 

 (= |c:@F@id::$tmp::return_value$_id$1?11!0&0#2| 

  (bvadd #b00000000000000000000000000000001 |c:@F@id::$tmp::return_value$_id$1?12!0&0#3|)))

(assert 

 (= |c:@F@id::$tmp::return_value$_id$1?11!0&0#3| 

  (ite 

   (= #b1 |goto_symex::guard?0!0&0#12|) #b00000000000000000000000000000000 |c:@F@id::$tmp::return_value$_id$1?11!0&0#2|)))

(assert 

 (= |c:@F@id::$tmp::return_value$_id$1?10!0&0#2| 

  (bvadd #b00000000000000000000000000000001 |c:@F@id::$tmp::return_value$_id$1?11!0&0#3|)))

(assert 

 (= |c:@F@id::$tmp::return_value$_id$1?10!0&0#3| 

  (ite 

   (= #b1 |goto_symex::guard?0!0&0#11|) #b00000000000000000000000000000000 |c:@F@id::$tmp::return_value$_id$1?10!0&0#2|)))

(assert 

 (= |c:@F@id::$tmp::return_value$_id$1?9!0&0#2| 

  (bvadd #b00000000000000000000000000000001 |c:@F@id::$tmp::return_value$_id$1?10!0&0#3|)))

(assert 

 (= |c:@F@id::$tmp::return_value$_id$1?9!0&0#3| 

  (ite 

   (= #b1 |goto_symex::guard?0!0&0#10|) #b00000000000000000000000000000000 |c:@F@id::$tmp::return_value$_id$1?9!0&0#2|)))

(assert 

 (= |c:@F@id::$tmp::return_value$_id$1?8!0&0#2| 

  (bvadd #b00000000000000000000000000000001 |c:@F@id::$tmp::return_value$_id$1?9!0&0#3|)))

(assert 

 (= |c:@F@id::$tmp::return_value$_id$1?8!0&0#3| 

  (ite 

   (= #b1 |goto_symex::guard?0!0&0#9|) #b00000000000000000000000000000000 |c:@F@id::$tmp::return_value$_id$1?8!0&0#2|)))

(assert 

 (= |c:@F@id::$tmp::return_value$_id$1?7!0&0#2| 

  (bvadd #b00000000000000000000000000000001 |c:@F@id::$tmp::return_value$_id$1?8!0&0#3|)))

(assert 

 (= |c:@F@id::$tmp::return_value$_id$1?7!0&0#3| 

  (ite 

   (= #b1 |goto_symex::guard?0!0&0#8|) #b00000000000000000000000000000000 |c:@F@id::$tmp::return_value$_id$1?7!0&0#2|)))

(assert 

 (= |c:@F@id::$tmp::return_value$_id$1?6!0&0#2| 

  (bvadd #b00000000000000000000000000000001 |c:@F@id::$tmp::return_value$_id$1?7!0&0#3|)))

(assert 

 (= |c:@F@id::$tmp::return_value$_id$1?6!0&0#3| 

  (ite 

   (= #b1 |goto_symex::guard?0!0&0#7|) #b00000000000000000000000000000000 |c:@F@id::$tmp::return_value$_id$1?6!0&0#2|)))

(assert 

 (= |c:@F@id::$tmp::return_value$_id$1?5!0&0#2| 

  (bvadd #b00000000000000000000000000000001 |c:@F@id::$tmp::return_value$_id$1?6!0&0#3|)))

(assert 

 (= |c:@F@id::$tmp::return_value$_id$1?5!0&0#3| 

  (ite 

   (= #b1 |goto_symex::guard?0!0&0#6|) #b00000000000000000000000000000000 |c:@F@id::$tmp::return_value$_id$1?5!0&0#2|)))

(assert 

 (= |c:@F@id::$tmp::return_value$_id$1?4!0&0#2| 

  (bvadd #b00000000000000000000000000000001 |c:@F@id::$tmp::return_value$_id$1?5!0&0#3|)))

(assert 

 (= |c:@F@id::$tmp::return_value$_id$1?4!0&0#3| 

  (ite 

   (= #b1 |goto_symex::guard?0!0&0#5|) #b00000000000000000000000000000000 |c:@F@id::$tmp::return_value$_id$1?4!0&0#2|)))

(assert 

 (= |c:@F@id::$tmp::return_value$_id$1?3!0&0#2| 

  (bvadd #b00000000000000000000000000000001 |c:@F@id::$tmp::return_value$_id$1?4!0&0#3|)))

(assert 

 (= |c:@F@id::$tmp::return_value$_id$1?3!0&0#3| 

  (ite 

   (= #b1 |goto_symex::guard?0!0&0#4|) #b00000000000000000000000000000000 |c:@F@id::$tmp::return_value$_id$1?3!0&0#2|)))

(assert 

 (= |c:@F@id::$tmp::return_value$_id$1?2!0&0#2| 

  (bvadd #b00000000000000000000000000000001 |c:@F@id::$tmp::return_value$_id$1?3!0&0#3|)))

(assert 

 (= |c:@F@id::$tmp::return_value$_id$1?2!0&0#3| 

  (ite 

   (= #b1 |goto_symex::guard?0!0&0#3|) #b00000000000000000000000000000000 |c:@F@id::$tmp::return_value$_id$1?2!0&0#2|)))

(assert 

 (= |c:@F@id::$tmp::return_value$_id$1?1!0&0#2| 

  (bvadd #b00000000000000000000000000000001 |c:@F@id::$tmp::return_value$_id$1?2!0&0#3|)))

(assert 

 (= |c:@F@id::$tmp::return_value$_id$1?1!0&0#3| 

  (ite 

   (= #b1 |goto_symex::guard?0!0&0#2|) #b00000000000000000000000000000000 |c:@F@id::$tmp::return_value$_id$1?1!0&0#2|)))

(assert 

 (= |c:@F@main::$tmp::return_value$_id$2?1!0&0#2| 

  (bvadd #b00000000000000000000000000000001 |c:@F@id::$tmp::return_value$_id$1?1!0&0#3|)))

(assert 

 (= |c:@F@main::$tmp::return_value$_id$2?1!0&0#3| 

  (ite 

   (= #b1 |goto_symex::guard?0!0&0#1|) #b00000000000000000000000000000000 |c:@F@main::$tmp::return_value$_id$2?1!0&0#2|)))

(assert 

 (= |c:@F@main::$tmp::return_value$_id$2?1!0&0#3| |c:id_o1000.c@451@F@main@result?1!0&0#1|))

(assert 

 (= |goto_symex::guard?0!0&0#34| 

  (ite 

   (= |c:id_o1000.c@451@F@main@result?1!0&0#1| #b00000000000000000000001111101000) #b1 #b0)))

(assert (= |execution_statet::guard_exec?0!0| #b1))

(assert (= 

 (bvnot |goto_symex::guard?0!0&0#33|) #b1))

(assert (= 

 (bvnot |goto_symex::guard?0!0&0#32|) #b1))

(assert (= 

 (bvnot |goto_symex::guard?0!0&0#31|) #b1))

(assert (= 

 (bvnot |goto_symex::guard?0!0&0#30|) #b1))

(assert (= 

 (bvnot |goto_symex::guard?0!0&0#29|) #b1))

(assert (= 

 (bvnot |goto_symex::guard?0!0&0#28|) #b1))

(assert (= 

 (bvnot |goto_symex::guard?0!0&0#27|) #b1))

(assert (= 

 (bvnot |goto_symex::guard?0!0&0#26|) #b1))

(assert (= 

 (bvnot |goto_symex::guard?0!0&0#25|) #b1))

(assert (= 

 (bvnot |goto_symex::guard?0!0&0#24|) #b1))

(assert (= 

 (bvnot |goto_symex::guard?0!0&0#23|) #b1))

(assert (= 

 (bvnot |goto_symex::guard?0!0&0#22|) #b1))

(assert (= 

 (bvnot |goto_symex::guard?0!0&0#21|) #b1))

(assert (= 

 (bvnot |goto_symex::guard?0!0&0#20|) #b1))

(assert (= 

 (bvnot |goto_symex::guard?0!0&0#19|) #b1))

(assert (= 

 (bvnot |goto_symex::guard?0!0&0#18|) #b1))

(assert (= 

 (bvnot |goto_symex::guard?0!0&0#17|) #b1))

(assert (= 

 (bvnot |goto_symex::guard?0!0&0#16|) #b1))

(assert (= 

 (bvnot |goto_symex::guard?0!0&0#15|) #b1))

(assert (= 

 (bvnot |goto_symex::guard?0!0&0#14|) #b1))

(assert (= 

 (bvnot |goto_symex::guard?0!0&0#13|) #b1))

(assert (= 

 (bvnot |goto_symex::guard?0!0&0#12|) #b1))

(assert (= 

 (bvnot |goto_symex::guard?0!0&0#11|) #b1))

(assert (= 

 (bvnot |goto_symex::guard?0!0&0#10|) #b1))

(assert (= 

 (bvnot |goto_symex::guard?0!0&0#9|) #b1))

(assert (= 

 (bvnot |goto_symex::guard?0!0&0#8|) #b1))

(assert (= 

 (bvnot |goto_symex::guard?0!0&0#7|) #b1))

(assert (= 

 (bvnot |goto_symex::guard?0!0&0#6|) #b1))

(assert (= 

 (bvnot |goto_symex::guard?0!0&0#5|) #b1))

(assert (= 

 (bvnot |goto_symex::guard?0!0&0#4|) #b1))

(assert (= 

 (bvnot |goto_symex::guard?0!0&0#3|) #b1))

(assert (= 

 (bvnot |goto_symex::guard?0!0&0#2|) #b1))

(assert (= 

 (bvnot |goto_symex::guard?0!0&0#1|) #b1))

(check-sat)

(exit)
